c ---- [ banner ] ------------------------------------------------------------
c
c Kissat SAT Solver
c 
c Copyright (c) 2021-2024 Armin Biere University of Freiburg
c Copyright (c) 2019-2021 Armin Biere Johannes Kepler University Linz
c 
c Version 4.0.1 43f02cf3e992cb44653b35e5cb26f93281552ae0
c gcc (Ubuntu 13.2.0-23ubuntu4) 13.2.0 -W -Wall -O3 -DNDEBUG
c Thu Sep 12 12:27:46 CEST 2024 Linux abryzen9 6.8.0-41-generic x86_64
c
c ---- [ parsing ] -----------------------------------------------------------
c
c opened and reading DIMACS file:
c
c   /data/artifact/AMulet2.0_artifact/exp4/cnf_compress2rs_64/64_64_U_SP_CWT_LF_GenMul_compress2rs.cnf
c
c parsed 'p cnf 39227 152178' header
c closing input after reading 2975228 bytes (3 MB)
c finished parsing after 0.04 seconds
c
c ---- [ options ] -----------------------------------------------------------
c
c --stable=0                       (different from default '1')
c
c ---- [ solving ] -----------------------------------------------------------
c
c  seconds switched rate     size/glue tier1  binary           remaining
c         MB reductions conflicts size  tier2     irredundant
c          level restarts redundant glue  trail           variables
c
c *  0.04 12 0 0 0  0 0   0   0 0.0 0 0 0 0 0% 39141 113035 39224 100%
c (  0.07 13 0 0 0  0 0   0   0 0.0 0 0 0 0 0% 39141 113035 39224 100%
c .  0.08 13 0 0 0  0 0   0   0 0.0 0 0 0 0 0% 39137 113035 39224 100%
c c  0.21 24 0 0 0  0 0   0   0 0.0 0 0 0 0 0% 47996 97224 34792 89%
c d  0.22 24 0 0 0  0 0   0   0 0.0 0 0 0 0 0% 39132 97224 34792 89%
c =  0.29 24 0 0 0  0 0   0   0 0.0 0 0 0 0 0% 38060 97224 34693 88%
c d  0.30 24 0 0 0  0 0   0   0 0.0 0 0 0 0 0% 37862 97224 34693 88%
c f  0.46 22 0 0 0  0 0   0   0 0.0 0 0 0 0 0% 39310 94764 35669 91%
c e  0.66 29 0 0 0  0 0   0   0 0.0 0 0 0 0 0% 23127 103254 26870 69%
c )  0.66 29 0 0 0  0 0   0   0 0.0 0 0 0 0 0% 23127 103254 26870 69%
c {  0.69 29 0 0 0  0 0   0   0 0.0 0 0 2 6 0% 23127 103254 26870 69%
c -  0.92 29 85 0 1 272 22 1000 745 2.6 10 4 3 8 13% 23221 103245 26870 69%
c -  1.23 29 157 0 2 446 29 2001 1505 2.8 12 4 3 8 20% 23276 103242 26870 69%
c c  1.77 23 169 0 2 567 32 2507 1957 3.8 19 5 3 8 23% 23287 103227 26865 68%
c d  1.78 23 169 0 2 567 32 2507 1952 3.8 19 5 3 8 23% 23277 103227 26865 68%
c u  1.82 23 169 0 2 567 32 2507 1454 3.8 19 5 3 8 23% 23283 103227 26865 68%
c v  1.87 23 169 0 2 567 32 2507 1285 3.8 19 5 3 8 23% 23283 103227 26865 68%
c w  1.90 23 169 0 2 567 32 2507 1285 3.8 19 5 3 8 23% 23283 103227 26865 68%
c x  1.93 25 169 0 2 567 32 2507 1284 3.8 19 5 3 8 23% 23395 102964 26865 68%
c =  2.05 25 169 0 2 567 32 2507 1284 3.8 19 5 3 8 23% 23413 102964 26856 68%
c
c  seconds   switched   rate       size/glue tier1    binary           remaining
c         MB  reductions conflicts       size  tier2      irredundant
c           level restarts    redundant    glue   trail           variables
c
c d  2.06 25 169 0 2 567 32 2507 1283 3.8 19 5 3 8 23% 23393 102964 26856 68%
c t  2.08 25 169 0 2 567 32 2507 1283 3.8 19 5 3 8 23% 23391 102964 26856 68%
c f  2.12 25 169 0 2 567 32 2507 1283 3.8 19 5 3 8 23% 24066 101751 27358 70%
c u  2.17 25 169 0 2 567 32 2507 1213 3.8 19 5 3 8 23% 24067 101751 27358 70%
c v  2.19 25 169 0 2 567 32 2507 1169 3.8 19 5 3 8 23% 24067 101751 27358 70%
c w  2.24 25 169 0 2 567 32 2507 1169 3.8 19 5 3 8 23% 24067 101751 27358 70%
c x  2.26 25 169 0 2 567 32 2507 1169 3.8 19 5 3 8 23% 24069 101746 27358 70%
c =  2.35 25 169 0 2 567 32 2507 1169 3.8 19 5 3 8 23% 24177 101746 27304 70%
c d  2.36 25 169 0 2 567 32 2507 1169 3.8 19 5 3 8 23% 24022 101746 27304 70%
c t  2.38 25 169 0 2 567 32 2507 1169 3.8 19 5 3 8 23% 24018 101746 27304 70%
c f  2.42 25 169 0 2 567 32 2507 1169 3.8 19 5 3 8 23% 24196 101460 27409 70%
c -  2.77 25 158 0 3 689 31 3415 1705 3.4 20 6 3 8 25% 24249 101460 27409 70%
c -  3.22 25 208 0 4 864 31 5147 2872 3.6 21 6 3 9 27% 24345 101444 27409 70%
c -  3.89 25 224 0 5 1058 31 7149 4166 3.9 24 6 3 8 29% 24413 101440 27409 70%
c c  4.08 25 233 0 5 1090 31 7717 4605 3.8 23 6 3 8 28% 24488 101395 27398 70%
c d  4.09 25 233 0 5 1090 31 7717 4560 3.8 23 6 3 8 28% 24461 101395 27395 70%
c u  4.14 25 233 0 5 1090 31 7717 3518 3.8 23 6 3 8 28% 24480 101395 27395 70%
c v  4.19 25 233 0 5 1090 31 7717 3226 3.8 23 6 3 8 28% 24480 101395 27395 70%
c w  4.23 25 233 0 5 1090 31 7717 3220 3.8 23 6 3 8 28% 24480 101395 27395 70%
c =  4.39 25 233 0 5 1090 31 7717 3220 3.8 23 6 3 8 28% 24960 101395 27155 69%
c
c  seconds   switched    rate       size/glue tier1    binary           remaining
c         MB  reductions  conflicts       size  tier2      irredundant
c           level  restarts    redundant    glue   trail           variables
c
c d  4.40 25 233 0 5 1090 31 7717 3213 3.8 23 6 3 8 28% 24397 101395 27155 69%
c t  4.43 25 233 0 5 1090 31 7717 3213 3.8 23 6 3 8 28% 24394 101395 27155 69%
c f  4.50 25 233 0 5 1090 31 7717 3213 3.8 23 6 3 8 28% 25297 99994 27639 70%
c u  4.56 25 233 0 5 1090 31 7717 3026 3.8 23 6 3 8 28% 25303 99994 27639 70%
c v  4.60 25 233 0 5 1090 31 7717 2961 3.8 23 6 3 8 28% 25303 99994 27639 70%
c w  4.64 25 233 0 5 1090 31 7717 2958 3.8 23 6 3 8 28% 25303 99994 27639 70%
c x  4.68 25 233 0 5 1090 31 7717 2958 3.8 23 6 3 8 28% 25319 99193 27639 70%
c =  4.85 25 233 0 5 1090 31 7717 2958 3.8 23 6 3 8 28% 25709 99193 27444 70%
c d  4.86 25 233 0 5 1090 31 7717 2943 3.8 23 6 3 8 28% 25271 99193 27444 70%
c t  4.89 25 233 0 5 1090 31 7717 2943 3.8 23 6 3 8 28% 25268 99193 27444 70%
c f  4.94 25 233 0 5 1090 31 7717 2943 3.8 23 6 3 8 28% 25379 99018 27504 70%
c -  5.13 25 260 0 6 1126 28 9385 3726 3.6 21 6 2 8 27% 25452 99012 27504 70%
c o  5.33 25 258 0 6 1164 28 10005 4257 3.7 21 6 2 8 27% 25482 99011 27504 70%
c -  6.13 25 246 0 7 1394 28 11836 5046 3.9 24 6 2 8 28% 25573 99007 27504 70%
c s  6.30 25 254 0 7 1427 28 12523 5635 3.9 23 6 2 8 28% 25619 97900 27504 70%
c e  6.44 25 254 0 7 1427 28 12523 5635 3.9 23 6 2 8 28% 23564 99793 26389 67%
c 2  6.44 25 254 0 7 1427 28 12523 5635 3.9 23 6 2 8 28% 23563 99793 26389 67%
c s  6.45 25 254 0 7 1427 28 12523 5635 3.9 23 6 2 8 28% 23576 99049 26389 67%
c e  6.47 25 254 0 7 1427 28 12523 5635 3.9 23 6 2 8 28% 23093 99375 26231 67%
c ^  6.47 25 254 0 7 1427 28 12523 5635 3.9 23 6 2 8 28% 23093 99375 26231 67%
c
c  seconds   switched    rate        size/glue tier1    binary          remaining
c         MB  reductions   conflicts       size  tier2      irredundant
c           level  restarts     redundant    glue   trail          variables
c
c -  6.87 25 250 0 8 1541 27 14481 6003 3.7 22 6 2 8 28% 23187 99372 26231 67%
c d  7.00 25 258 0 8 1567 26 15807 7080 3.6 21 6 2 8 27% 23146 99368 26167 67%
c u  7.04 25 258 0 8 1567 26 15807 5855 3.6 21 6 2 8 27% 23167 99368 26167 67%
c v  7.08 25 258 0 8 1567 26 15807 5048 3.6 21 6 2 8 27% 23169 99368 26167 67%
c w  7.11 25 258 0 8 1567 26 15807 5045 3.6 21 6 2 8 27% 23169 99368 26167 67%
c x  7.14 25 258 0 8 1567 26 15807 5041 3.6 21 6 2 8 27% 23191 97473 26167 67%
c =  7.28 25 258 0 8 1567 26 15807 5041 3.6 21 6 2 8 27% 24115 97472 25705 66%
c d  7.29 25 258 0 8 1567 26 15807 5017 3.6 21 6 2 8 27% 22928 97472 25703 66%
c t  7.30 25 258 0 8 1567 26 15807 5017 3.6 21 6 2 8 27% 22910 97472 25703 66%
c f  7.35 25 258 0 8 1567 26 15807 5017 3.6 21 6 2 8 27% 22931 97367 25737 66%
c c  7.41 25 258 0 8 1567 26 15807 5011 3.6 21 6 2 8 27% 22943 97347 25733 66%
c d  7.42 25 258 0 8 1567 26 15807 5011 3.6 21 6 2 8 27% 22935 97347 25733 66%
c u  7.46 25 258 0 8 1567 26 15807 4758 3.6 21 6 2 8 27% 22939 97347 25733 66%
c v  7.49 25 258 0 8 1567 26 15807 4598 3.6 21 6 2 8 27% 22940 97347 25733 66%
c w  7.51 25 258 0 8 1567 26 15807 4575 3.6 21 6 2 8 27% 22940 97347 25733 66%
c x  7.55 25 258 0 8 1567 26 15807 4565 3.6 21 6 2 8 27% 22975 96289 25733 66%
c =  7.68 25 258 0 8 1567 26 15807 4565 3.6 21 6 2 8 27% 23503 96289 25469 65%
c d  7.69 25 258 0 8 1567 26 15807 4547 3.6 21 6 2 8 27% 22861 96289 25469 65%
c t  7.70 25 258 0 8 1567 26 15807 4547 3.6 21 6 2 8 27% 22852 96289 25469 65%
c f  7.72 25 258 0 8 1567 26 15807 4547 3.6 21 6 2 8 27% 22856 96268 25476 65%
c
c  seconds   switched    rate        size/glue tier1    binary          remaining
c         MB  reductions   conflicts       size  tier2      irredundant
c           level  restarts     redundant    glue   trail          variables
c
c -  7.95 25 267 0 9 1641 26 17309 5102 3.5 21 6 2 8 27% 22910 96266 25476 65%
c o  8.31 25 260 0 9 1782 25 20057 7549 3.5 20 6 2 8 27% 23000 96266 25476 65%
c -  8.36 25 258 0 10 1824 25 20309 6884 3.5 20 6 2 7 27% 23008 96265 25476 65%
c -  8.72 25 266 0 11 1981 24 23471 8591 3.4 19 6 2 7 27% 23112 96263 25476 65%
c s  9.04 25 267 0 11 2112 24 25040 9983 3.5 20 6 2 7 27% 23167 95911 25476 65%
c e  9.18 25 267 0 11 2112 24 25040 9983 3.5 20 6 2 7 27% 19322 102288 22305 57%
c 2  9.18 25 267 0 11 2112 24 25040 9983 3.5 20 6 2 7 27% 19315 102288 22305 57%
c s  9.20 25 267 0 11 2112 24 25040 9983 3.5 20 6 2 7 27% 19633 100355 22305 57%
c e  9.23 25 267 0 11 2112 24 25040 9983 3.5 20 6 2 7 27% 19535 100500 22241 57%
c ^  9.23 25 267 0 11 2112 24 25040 9983 3.5 20 6 2 7 27% 19535 100500 22241 57%
c -  9.57 25 264 0 12 2255 25 26787 7873 3.4 20 6 2 7 27% 19565 100500 22241 57%
c d  9.59 25 262 0 12 2258 25 26944 7991 3.4 20 6 2 7 27% 19531 100500 22219 57%
c u  9.64 25 262 0 12 2258 25 26944 6648 3.4 20 6 2 7 27% 19552 100500 22219 57%
c v  9.67 25 262 0 12 2258 25 26944 5840 3.4 20 6 2 7 27% 19552 100500 22219 57%
c w  9.68 25 262 0 12 2258 25 26944 5838 3.4 20 6 2 7 27% 19552 100500 22219 57%
c x  9.73 25 262 0 12 2258 25 26944 5821 3.4 20 6 2 7 27% 19578 99382 22219 57%
c =  9.92 25 262 0 12 2258 25 26944 5821 3.4 20 6 2 7 27% 21102 99382 21457 55%
c d  9.92 25 262 0 12 2258 25 26944 5715 3.4 20 6 2 7 27% 19502 99382 21455 55%
c t  9.94 25 262 0 12 2258 25 26944 5715 3.4 20 6 2 7 27% 19437 99382 21455 55%
c f 10.01 25 262 0 12 2258 25 26944 5715 3.4 20 6 2 7 27% 19670 98417 21661 55%
c
c  seconds   switched     rate        size/glue tier1    binary          remaining
c         MB   reductions   conflicts       size  tier2      irredundant
c           level   restarts     redundant    glue   trail          variables
c
c u 10.05 25 262 0 12 2258 25 26944 5448 3.4 20 6 2 7 27% 19674 98417 21661 55%
c v 10.08 25 262 0 12 2258 25 26944 5288 3.4 20 6 2 7 27% 19674 98417 21661 55%
c w 10.09 25 262 0 12 2258 25 26944 5284 3.4 20 6 2 7 27% 19674 98417 21661 55%
c x 10.17 25 262 0 12 2258 25 26944 5281 3.4 20 6 2 7 27% 19713 94355 21661 55%
c = 10.35 25 262 0 12 2258 25 26944 5281 3.4 20 6 2 7 27% 21431 94355 20802 53%
c d 10.36 25 262 0 12 2258 25 26944 5231 3.4 20 6 2 7 27% 19687 94355 20802 53%
c t 10.39 25 262 0 12 2258 25 26944 5231 3.4 20 6 2 7 27% 19606 94355 20802 53%
c f 10.44 25 262 0 12 2258 25 26944 5231 3.4 20 6 2 7 27% 19671 93911 20882 53%
c - 10.91 25 250 0 13 2468 24 30252 7336 3.3 20 6 2 7 28% 19735 93911 20882 53%
c - 11.43 25 240 0 14 2700 23 33859 9421 3.3 20 6 2 7 28% 19814 93911 20882 53%
c - 12.04 25 231 0 15 2976 23 37600 11141 3.2 19 6 2 7 29% 19890 93911 20882 53%
c o 12.43 25 226 0 15 3150 23 40076 13391 3.2 19 6 2 7 29% 19921 93910 20882 53%
c d 12.65 25 224 0 15 3276 23 41278 14464 3.2 19 6 2 7 29% 19868 93910 20839 53%
c u 12.71 25 224 0 15 3276 23 41278 12623 3.2 19 6 2 7 29% 19880 93910 20839 53%
c v 12.77 25 224 0 15 3276 23 41278 12009 3.2 19 6 2 7 29% 19880 93910 20839 53%
c w 12.82 25 224 0 15 3276 23 41278 12009 3.2 19 6 2 7 29% 19880 93910 20839 53%
c x 12.89 25 224 0 15 3276 23 41278 12001 3.2 19 6 2 7 29% 19880 89450 20839 53%
c = 13.09 25 224 0 15 3276 23 41278 12001 3.2 19 6 2 7 29% 20088 89450 20735 53%
c d 13.10 25 224 0 15 3276 23 41278 11968 3.2 19 6 2 7 29% 19859 89450 20735 53%
c t 13.12 25 224 0 15 3276 23 41278 11968 3.2 19 6 2 7 29% 19815 89450 20735 53%
c
c  seconds   switched     rate         size/glue tier1    binary          remaining
c         MB   reductions   conflicts        size  tier2      irredundant
c           level   restarts      redundant    glue   trail          variables
c
c f 13.14 25 224 0 15 3276 23 41278 11968 3.2 19 6 2 7 29% 19807 89418 20741 53%
c u 13.24 25 224 0 15 3276 23 41278 11593 3.2 19 6 2 7 29% 19812 89418 20741 53%
c v 13.31 25 224 0 15 3276 23 41278 10476 3.2 19 6 2 7 29% 19813 89418 20741 53%
c w 13.35 25 224 0 15 3276 23 41278 10476 3.2 19 6 2 7 29% 19813 89418 20741 53%
c x 13.41 25 224 0 15 3276 23 41278 10473 3.2 19 6 2 7 29% 19815 87357 20741 53%
c = 13.63 25 224 0 15 3276 23 41278 10473 3.2 19 6 2 7 29% 20155 87357 20571 52%
c d 13.64 25 224 0 15 3276 23 41278 10457 3.2 19 6 2 7 29% 19724 87357 20571 52%
c t 13.66 25 224 0 15 3276 23 41278 10457 3.2 19 6 2 7 29% 19711 87357 20571 52%
c f 13.68 25 224 0 15 3276 23 41278 10457 3.2 19 6 2 7 29% 19720 87307 20580 52%
c - 13.71 25 223 0 16 3278 23 41472 9220 3.2 19 6 2 7 29% 19724 87307 20580 52%
c - 14.31 25 219 0 17 3602 23 45472 11261 3.1 19 6 2 6 29% 19799 87306 20580 52%
c - 14.81 25 213 0 18 3835 22 49597 13200 3.1 18 6 2 6 29% 19878 87306 20580 52%
c s 15.13 25 210 0 18 3944 22 52170 15513 3.0 18 6 2 6 28% 19925 86761 20580 52%
c e 15.25 25 210 0 18 3944 22 52170 15513 3.0 18 6 2 6 28% 15345 94383 18154 46%
c 2 15.25 25 210 0 18 3944 22 52170 15513 3.0 18 6 2 6 28% 15341 94383 18154 46%
c s 15.27 25 210 0 18 3944 22 52170 15513 3.0 18 6 2 6 28% 15517 93086 18154 46%
c e 15.30 25 210 0 18 3944 22 52170 15513 3.0 18 6 2 6 28% 14971 93847 17965 46%
c ^ 15.30 25 210 0 18 3944 22 52170 15513 3.0 18 6 2 6 28% 14971 93847 17965 46%
c - 15.61 29 207 0 19 4096 22 53839 11957 3.0 18 6 2 6 28% 14985 93846 17965 46%
c - 16.19 29 199 0 20 4425 21 58197 13900 2.9 17 6 2 6 28% 15051 93844 17965 46%
c
c  seconds   switched     rate         size/glue tier1    binary          remaining
c         MB   reductions   conflicts        size  tier2      irredundant
c           level   restarts      redundant    glue   trail          variables
c
c d 16.29 29 199 0 20 4477 21 58906 14531 2.9 17 6 2 6 28% 15053 93844 17962 46%
c u 16.35 29 199 0 20 4477 21 58906 12266 2.9 17 6 2 6 28% 15070 93844 17962 46%
c v 16.40 29 199 0 20 4477 21 58906 10969 2.9 17 6 2 6 28% 15072 93844 17962 46%
c w 16.43 29 199 0 20 4477 21 58906 10953 2.9 17 6 2 6 28% 15072 93844 17962 46%
c x 16.49 29 199 0 20 4477 21 58906 10950 2.9 17 6 2 6 28% 15074 93322 17962 46%
c = 16.75 29 199 0 20 4477 21 58906 10950 2.9 17 6 2 6 28% 15766 93322 17616 45%
c d 16.75 29 199 0 20 4477 21 58906 10858 2.9 17 6 2 6 28% 15055 93322 17616 45%
c t 16.77 29 199 0 20 4477 21 58906 10858 2.9 17 6 2 6 28% 14920 93322 17616 45%
c f 16.86 29 199 0 20 4477 21 58906 10858 2.9 17 6 2 6 28% 15279 92165 17769 45%
c u 16.92 29 199 0 20 4477 21 58906 10319 2.9 17 6 2 6 28% 15285 92165 17769 45%
c v 16.97 29 199 0 20 4477 21 58906 9696 2.9 17 6 2 6 28% 15286 92165 17769 45%
c w 16.99 29 199 0 20 4477 21 58906 9678 2.9 17 6 2 6 28% 15286 92165 17769 45%
c x 17.06 29 199 0 20 4477 21 58906 9660 2.9 17 6 2 6 28% 15309 89222 17769 45%
c = 17.31 29 199 0 20 4477 21 58906 9660 2.9 17 6 2 6 28% 16241 89222 17303 44%
c d 17.32 29 199 0 20 4477 21 58906 9592 2.9 17 6 2 6 28% 15261 89222 17303 44%
c t 17.34 29 199 0 20 4477 21 58906 9592 2.9 17 6 2 6 28% 15172 89222 17303 44%
c f 17.37 29 199 0 20 4477 21 58906 9592 2.9 17 6 2 6 28% 15250 88927 17344 44%
c - 17.84 29 193 0 21 4714 21 62669 11473 2.8 17 6 2 6 29% 15288 88926 17344 44%
c - 18.42 29 186 0 22 5022 20 67251 13830 2.8 16 6 2 6 29% 15355 88924 17344 44%
c o 18.83 29 181 0 22 5272 20 70078 16491 2.7 16 6 2 6 29% 15380 88923 17344 44%
c
c  seconds   switched     rate         size/glue tier1    binary          remaining
c         MB   reductions   conflicts        size  tier2      irredundant
c           level   restarts      redundant    glue   trail          variables
c
c - 19.09 29 179 0 23 5403 20 71942 15772 2.7 16 6 2 6 28% 15410 88923 17344 44%
c - 19.88 29 175 0 24 5854 20 76737 17533 2.7 16 6 2 6 29% 15461 88923 17344 44%
c d 20.22 29 174 0 24 6035 20 79958 20305 2.7 16 6 2 6 28% 15470 88923 17332 44%
c u 20.31 29 174 0 24 6035 20 79958 17394 2.7 16 6 2 6 28% 15494 88923 17332 44%
c v 20.37 29 174 0 24 6035 20 79958 16579 2.7 16 6 2 6 28% 15494 88923 17332 44%
c w 20.42 29 174 0 24 6035 20 79958 16577 2.7 16 6 2 6 28% 15494 88923 17332 44%
c x 20.50 29 174 0 24 6035 20 79958 16565 2.7 16 6 2 6 28% 15525 85627 17332 44%
c d 20.55 29 174 0 24 6035 20 79958 16560 2.7 16 6 2 6 28% 15521 85627 17330 44%
c t 20.57 29 174 0 24 6035 20 79958 16560 2.7 16 6 2 6 28% 15489 85627 17330 44%
c f 20.58 29 174 0 24 6035 20 79958 16560 2.7 16 6 2 6 28% 15491 85620 17331 44%
c u 20.66 29 174 0 24 6035 20 79958 15867 2.7 16 6 2 6 28% 15497 85620 17331 44%
c v 20.73 29 174 0 24 6035 20 79958 14349 2.7 16 6 2 6 28% 15498 85620 17331 44%
c w 20.77 29 174 0 24 6035 20 79958 14309 2.7 16 6 2 6 28% 15498 85620 17331 44%
c x 20.85 29 174 0 24 6035 20 79958 14303 2.7 16 6 2 6 28% 15536 83868 17331 44%
c t 20.87 29 174 0 24 6035 20 79958 14303 2.7 16 6 2 6 28% 15534 83868 17331 44%
c - 21.15 29 172 0 25 6193 20 81635 13950 2.7 16 6 2 6 28% 15543 83866 17331 44%
c - 21.73 29 168 0 26 6520 19 86635 16465 2.6 16 6 2 6 28% 15601 83865 17331 44%
c - 22.44 29 165 0 27 6969 19 91734 18822 2.6 15 6 2 6 28% 15651 83865 17331 44%
c s 23.07 29 164 0 27 7292 19 95832 22552 2.6 15 6 2 6 28% 15701 83383 17331 44%
c e 23.19 29 164 0 27 7292 19 95832 22552 2.6 15 6 2 6 28% 11316 95587 14658 37%
c
c  seconds   switched     rate         size/glue tier1    binary          remaining
c         MB   reductions   conflicts        size  tier2      irredundant
c           level   restarts      redundant    glue   trail          variables
c
c 2 23.19 29 164 0 27 7292 19 95832 22552 2.6 15 6 2 6 28% 11306 95587 14658 37%
c s 23.23 29 164 0 27 7292 19 95832 22552 2.6 15 6 2 6 28% 11387 94080 14658 37%
c e 23.25 29 164 0 27 7292 19 95832 22552 2.6 15 6 2 6 28% 11234 94422 14582 37%
c ^ 23.25 29 164 0 27 7292 19 95832 22552 2.6 15 6 2 6 28% 11234 94422 14582 37%
c - 23.41 29 163 0 28 7392 19 96930 14691 2.6 15 6 2 6 28% 11239 94422 14582 37%
c - 24.19 29 161 0 29 7943 19 102222 17290 2.5 15 6 2 6 28% 11270 94422 14582 37%
c c 24.47 29 159 0 29 8105 19 104562 19295 2.5 15 6 2 6 28% 11335 94302 14560 37%
c d 24.48 29 159 0 29 8105 19 104562 19220 2.5 15 6 2 6 28% 11291 94302 14560 37%
c u 24.56 29 159 0 29 8105 19 104562 16612 2.5 15 6 2 6 28% 11302 94302 14560 37%
c v 24.63 29 159 0 29 8105 19 104562 14448 2.5 15 6 2 6 28% 11302 94302 14560 37%
c w 24.66 29 159 0 29 8105 19 104562 14417 2.5 15 6 2 6 28% 11302 94302 14560 37%
c x 24.73 29 159 0 29 8105 19 104562 14416 2.5 15 6 2 6 28% 11306 93822 14560 37%
c = 25.21 29 159 0 29 8105 19 104562 14416 2.5 15 6 2 6 28% 11824 93810 14301 36%
c d 25.22 29 159 0 29 8105 19 104562 14226 2.5 15 6 2 6 28% 11266 93810 14301 36%
c t 25.25 29 159 0 29 8105 19 104562 14226 2.5 15 6 2 6 28% 11181 93810 14301 36%
c f 25.41 29 159 0 29 8105 19 104562 14226 2.5 15 6 2 6 28% 11185 93560 14325 37%
c u 25.53 29 159 0 29 8105 19 104562 13489 2.5 15 6 2 6 28% 11191 93560 14325 37%
c v 25.62 29 159 0 29 8105 19 104562 13052 2.5 15 6 2 6 28% 11191 93560 14325 37%
c w 25.68 29 159 0 29 8105 19 104562 12986 2.5 15 6 2 6 28% 11191 93560 14325 37%
c x 25.84 29 159 0 29 8105 19 104562 12975 2.5 15 6 2 6 28% 11195 92199 14325 37%
c
c  seconds   switched     rate          size/glue tier1    binary          remaining
c         MB   reductions   conflicts         size  tier2      irredundant
c           level   restarts       redundant    glue   trail          variables
c
c = 26.35 29 159 0 29 8105 19 104562 12975 2.5 15 6 2 6 28% 11527 92199 14159 36%
c d 26.36 29 159 0 29 8105 19 104562 12890 2.5 15 6 2 6 28% 11183 92199 14159 36%
c t 26.38 29 159 0 29 8105 19 104562 12890 2.5 15 6 2 6 28% 11171 92199 14159 36%
c f 26.43 29 159 0 29 8105 19 104562 12890 2.5 15 6 2 6 28% 11173 92187 14160 36%
c - 27.01 29 157 0 30 8341 19 107609 13979 2.5 15 6 2 6 28% 11184 92187 14160 36%
c o 27.81 29 156 0 30 8663 19 110082 16293 2.4 15 6 2 6 28% 11198 92187 14160 36%
c - 28.67 29 155 0 31 9071 19 113086 16847 2.4 15 6 2 6 29% 11215 92187 14160 36%
c - 29.89 30 154 0 32 9614 19 118655 19265 2.4 15 6 2 6 29% 11241 92187 14160 36%
c - 31.04 30 152 0 33 10123 19 124311 21021 2.4 15 6 2 6 28% 11278 92186 14160 36%
c - 32.42 30 152 0 34 10613 19 130055 22849 2.4 15 6 2 6 28% 11318 92186 14160 36%
c d 33.22 30 152 0 34 10925 20 132789 25195 2.4 15 6 2 6 28% 11320 92186 14151 36%
c u 33.39 30 152 0 34 10925 20 132789 21640 2.4 15 6 2 6 28% 11342 92186 14151 36%
c v 33.55 30 152 0 34 10925 20 132789 19016 2.4 15 6 2 6 28% 11342 92186 14151 36%
c w 33.65 30 152 0 34 10925 20 132789 19016 2.4 15 6 2 6 28% 11342 92186 14151 36%
c x 33.81 30 152 0 34 10925 20 132789 18972 2.4 15 6 2 6 28% 11356 88139 14151 36%
c = 34.48 30 152 0 34 10925 20 132789 18972 2.4 15 6 2 6 28% 11770 88073 13936 36%
c d 34.49 30 152 0 34 10925 20 132789 18759 2.4 15 6 2 6 28% 11325 88073 13936 36%
c t 34.51 30 152 0 34 10925 20 132789 18759 2.4 15 6 2 6 28% 11264 88073 13936 36%
c f 34.55 30 152 0 34 10925 20 132789 18759 2.4 15 6 2 6 28% 11266 88062 13937 36%
c u 34.75 30 152 0 34 10925 20 132789 17752 2.4 15 6 2 6 28% 11268 88062 13937 36%
c
c  seconds   switched      rate          size/glue tier1    binary          remaining
c         MB   reductions    conflicts         size  tier2      irredundant
c           level   restarts        redundant    glue   trail          variables
c
c v 34.86 30 152 0 34 10925 20 132789 17022 2.4 15 6 2 6 28% 11269 88062 13937 36%
c w 35.04 30 152 0 34 10925 20 132789 16931 2.4 15 6 2 6 28% 11269 88062 13937 36%
c x 35.18 30 152 0 34 10925 20 132789 16922 2.4 15 6 2 6 28% 11286 86357 13937 36%
c = 35.81 30 152 0 34 10925 20 132789 16922 2.4 15 6 2 6 28% 11442 86357 13859 35%
c d 35.82 30 152 0 34 10925 20 132789 16863 2.4 15 6 2 6 28% 11274 86357 13859 35%
c t 35.83 30 152 0 34 10925 20 132789 16863 2.4 15 6 2 6 28% 11267 86357 13859 35%
c f 35.84 30 152 0 34 10925 20 132789 16863 2.4 15 6 2 6 28% 11269 86345 13860 35%
c - 36.19 30 151 0 35 11095 19 135885 17538 2.4 15 6 2 6 28% 11285 86345 13860 35%
c - 36.93 30 149 0 36 11515 19 141801 20526 2.4 15 6 2 6 28% 11326 86344 13860 35%
c - 37.67 30 148 0 37 11933 19 147801 23031 2.4 15 6 2 6 28% 11363 86344 13860 35%
c - 38.47 30 147 0 38 12382 19 153883 25043 2.4 15 6 2 6 28% 11401 86343 13860 35%
c s 38.80 30 145 0 38 12592 19 157864 28187 2.4 15 6 2 6 28% 11424 85642 13860 35%
c e 38.94 31 145 0 38 12592 19 157864 28187 2.4 15 6 2 6 28% 7668 102376 11610 30%
c 2 38.94 31 145 0 38 12592 19 157864 28187 2.4 15 6 2 6 28% 7666 102376 11610 30%
c s 38.99 31 145 0 38 12592 19 157864 28187 2.4 15 6 2 6 28% 7694 100263 11610 30%
c e 39.03 31 145 0 38 12592 19 157864 28187 2.4 15 6 2 6 28% 7567 100727 11549 29%
c ^ 39.03 31 145 0 38 12592 19 157864 28187 2.4 15 6 2 6 28% 7567 100727 11549 29%
c - 39.22 31 145 0 39 12696 18 160048 18319 2.4 15 6 2 6 28% 7585 100726 11549 29%
c o 39.23 31 145 0 39 12704 18 160086 18355 2.4 15 6 2 6 28% 7585 100726 11549 29%
c d 39.88 31 144 0 39 13146 19 164740 22517 2.4 15 6 2 6 28% 7580 100725 11540 29%
c
c  seconds   switched      rate          size/glue tier1    binary          remaining
c         MB   reductions    conflicts         size  tier2     irredundant
c           level   restarts        redundant    glue   trail          variables
c
c u 39.97 31 144 0 39 13146 19 164740 19357 2.4 15 6 2 6 28% 7601 100725 11540 29%
c v 40.06 31 144 0 39 13146 19 164740 17012 2.4 15 6 2 6 28% 7603 100725 11540 29%
c w 40.11 31 144 0 39 13146 19 164740 17012 2.4 15 6 2 6 28% 7603 100725 11540 29%
c x 40.18 31 144 0 39 13146 19 164740 17012 2.4 15 6 2 6 28% 7604 100639 11540 29%
c = 40.60 31 144 0 39 13146 19 164740 17012 2.4 15 6 2 6 28% 7906 100630 11389 29%
c d 40.61 31 144 0 39 13146 19 164740 16787 2.4 15 6 2 6 28% 7577 100630 11388 29%
c t 40.62 31 144 0 39 13146 19 164740 16787 2.4 15 6 2 6 28% 7495 100630 11388 29%
c f 40.74 31 144 0 39 13146 19 164740 16787 2.4 15 6 2 6 28% 7491 99894 11421 29%
c u 40.83 31 144 0 39 13146 19 164740 16094 2.4 15 6 2 6 28% 7493 99894 11421 29%
c v 40.88 31 144 0 39 13146 19 164740 15665 2.4 15 6 2 6 28% 7494 99894 11421 29%
c w 41.07 31 144 0 39 13146 19 164740 15427 2.4 15 6 2 6 28% 7494 99894 11421 29%
c = 41.51 31 144 0 39 13146 19 164740 15427 2.4 15 6 2 6 28% 7726 99894 11305 29%
c d 41.51 31 144 0 39 13146 19 164740 15254 2.4 15 6 2 6 28% 7485 99894 11305 29%
c t 41.52 31 144 0 39 13146 19 164740 15254 2.4 15 6 2 6 28% 7482 99894 11305 29%
c - 41.80 31 144 0 40 13248 18 166294 14833 2.4 15 6 2 6 28% 7485 99894 11305 29%
c - 42.52 31 144 0 41 13736 18 172619 18241 2.3 15 6 2 6 28% 7518 99892 11305 29%
c - 43.43 31 143 0 42 14400 19 179022 21121 2.3 15 6 2 6 28% 7533 99890 11305 29%
c i 43.43 31 143 0 42 14400 19 179084 21161 2.3 15 6 2 6 28% 7538 99890 11304 29%
c - 44.38 31 143 0 43 15024 19 185502 23363 2.3 15 7 2 6 28% 7538 99888 11304 29%
c i 44.57 31 143 0 43 15145 19 186809 24506 2.3 15 7 2 6 28% 7547 99884 11302 29%
c
c  seconds   switched      rate          size/glue tier1    binary         remaining
c         MB   reductions    conflicts         size  tier2     irredundant
c           level   restarts        redundant    glue   trail         variables
c
c - 45.68 32 142 0 44 15805 19 192060 25461 2.4 16 7 2 6 29% 7549 99884 11302 29%
c - 46.86 32 141 0 45 16562 19 198693 27425 2.4 16 7 2 5 29% 7569 99883 11302 29%
c i 46.92 32 141 0 45 16582 19 199849 28323 2.4 16 7 2 5 29% 7580 99883 11301 29%
c d 46.98 32 140 0 45 16614 19 200524 28685 2.4 16 7 2 5 29% 7562 99842 11286 29%
c d 46.98 32 140 0 45 16614 19 200524 28682 2.4 16 7 2 5 29% 7552 99842 11281 29%
c u 47.10 32 140 0 45 16614 19 200524 24810 2.4 16 7 2 5 29% 7567 99842 11281 29%
c v 47.19 32 140 0 45 16614 19 200524 21620 2.4 16 7 2 5 29% 7569 99842 11281 29%
c w 47.25 32 140 0 45 16614 19 200524 21197 2.4 16 7 2 5 29% 7569 99842 11281 29%
c x 47.34 32 140 0 45 16614 19 200524 21195 2.4 16 7 2 5 29% 7570 99551 11281 29%
c = 47.94 32 140 0 45 16614 19 200524 21195 2.4 16 7 2 5 29% 7640 99530 11244 29%
c d 47.95 32 140 0 45 16614 19 200524 21076 2.4 16 7 2 5 29% 7566 99528 11244 29%
c t 47.96 32 140 0 45 16614 19 200524 21076 2.4 16 7 2 5 29% 7543 99528 11244 29%
c f 47.98 32 140 0 45 16614 19 200524 21076 2.4 16 7 2 5 29% 7547 99507 11245 29%
c u 48.11 32 140 0 45 16614 19 200524 20137 2.4 16 7 2 5 29% 7551 99507 11245 29%
c v 48.17 32 140 0 45 16614 19 200524 19439 2.4 16 7 2 5 29% 7552 99507 11245 29%
c w 48.21 32 140 0 45 16614 19 200524 19235 2.4 16 7 2 5 29% 7552 99507 11245 29%
c x 48.41 32 140 0 45 16614 19 200524 19135 2.4 16 7 2 5 29% 7589 91808 11245 29%
c = 49.01 32 140 0 45 16614 19 200524 19135 2.4 16 7 2 5 29% 7618 91738 11222 29%
c d 49.02 32 140 0 45 16614 19 200524 19056 2.4 16 7 2 5 29% 7588 91738 11222 29%
c t 49.03 32 140 0 45 16614 19 200524 19056 2.4 16 7 2 5 29% 7581 91738 11222 29%
c
c  seconds   switched      rate          size/glue tier1    binary         remaining
c         MB   reductions    conflicts         size  tier2     irredundant
c           level   restarts        redundant    glue   trail         variables
c
c - 49.64 32 139 0 46 16913 19 205402 20740 2.4 16 7 2 5 29% 7583 91735 11222 29%
c - 50.51 32 138 0 47 17451 19 212185 23761 2.3 16 7 2 5 29% 7595 91733 11222 29%
c i 50.89 32 137 0 47 17696 19 214711 26058 2.3 16 7 2 5 29% 7606 91732 11221 29%
c i 51.36 32 137 0 47 17967 19 218336 29406 2.4 16 7 2 5 29% 7614 91730 11220 29%
c - 51.45 32 136 0 48 18020 19 219040 26325 2.3 16 7 2 5 29% 7614 91730 11220 29%
c o 51.60 32 136 0 48 18110 19 220093 27261 2.4 16 7 2 5 29% 7617 91730 11220 29%
c i 51.77 32 136 0 48 18213 19 221177 28259 2.4 16 7 2 5 29% 7623 91730 11219 29%
c - 52.35 32 134 0 49 18547 18 225969 28397 2.3 16 7 2 5 29% 7633 91729 11219 29%
c i 52.62 32 134 0 49 18715 18 227783 30051 2.3 16 7 2 5 29% 7637 91729 11215 29%
c i 52.62 32 134 0 49 18717 18 227802 30060 2.3 16 7 2 5 29% 7640 91729 11213 29%
c i 52.67 32 134 0 49 18752 18 228133 30375 2.3 16 7 2 5 29% 7643 91729 11212 29%
c i 52.81 32 133 0 49 18825 18 229497 31621 2.3 16 7 2 5 29% 7650 91729 11211 29%
c i 52.86 32 133 0 49 18850 18 229904 32006 2.3 16 7 2 5 29% 7652 91729 11210 29%
c i 53.12 32 133 0 49 19017 18 231842 33796 2.3 16 7 2 5 29% 7661 91729 11207 29%
c - 53.21 32 132 0 50 19087 18 232970 29739 2.3 16 7 2 5 29% 7653 91729 11207 29%
c s 53.95 32 129 0 50 19583 18 239982 36175 2.3 16 7 2 5 29% 7669 91513 11207 29%
c e 54.14 34 129 0 50 19583 18 239982 36175 2.3 16 7 2 5 29% 4434 116714 9214 23%
c 2 54.15 34 129 0 50 19583 18 239982 36175 2.3 16 7 2 5 29% 4430 116714 9214 23%
c s 54.21 34 129 0 50 19583 18 239982 36175 2.3 16 7 2 5 29% 4443 113365 9214 23%
c e 54.28 34 129 0 50 19583 18 239982 36175 2.3 16 7 2 5 29% 4281 114333 9139 23%
c
c  seconds   switched      rate          size/glue tier1    binary         remaining
c         MB   reductions    conflicts         size  tier2     irredundant
c           level   restarts        redundant    glue   trail         variables
c
c ! 54.28 34 129 0 50 19583 18 239982 36175 2.3 16 7 2 5 29% 4281 114333 9139 23%
c - 54.30 34 129 0 51 19595 18 240041 18836 2.3 16 7 2 5 29% 4284 114330 9139 23%
c d 54.32 34 129 0 51 19600 18 240175 18962 2.3 16 7 2 5 29% 4283 114330 9138 23%
c u 54.41 34 129 0 51 19600 18 240175 16480 2.3 16 7 2 5 29% 4291 114330 9138 23%
c v 54.46 34 129 0 51 19600 18 240175 15198 2.3 16 7 2 5 29% 4291 114330 9138 23%
c w 54.48 34 129 0 51 19600 18 240175 15087 2.3 16 7 2 5 29% 4292 114330 9138 23%
c x 54.61 34 129 0 51 19600 18 240175 15081 2.3 16 7 2 5 29% 4293 114165 9138 23%
c = 55.20 34 129 0 51 19600 18 240175 15081 2.3 16 7 2 5 29% 4345 113902 9097 23%
c d 55.21 34 129 0 51 19600 18 240175 14949 2.3 16 7 2 5 29% 4304 113899 9097 23%
c t 55.22 34 129 0 51 19600 18 240175 14949 2.3 16 7 2 5 29% 4215 113899 9097 23%
c f 55.37 34 129 0 51 19600 18 240175 14949 2.3 16 7 2 5 29% 4398 109552 9254 24%
c u 55.45 34 129 0 51 19600 18 240175 14580 2.3 16 7 2 5 29% 4402 109552 9254 24%
c v 55.49 34 129 0 51 19600 18 240175 14376 2.3 16 7 2 5 29% 4402 109552 9254 24%
c w 55.50 34 129 0 51 19600 18 240175 14343 2.3 16 7 2 5 29% 4402 109552 9254 24%
c x 55.67 34 129 0 51 19600 18 240175 14341 2.3 16 7 2 5 29% 4402 109357 9254 24%
c f 56.37 34 129 0 51 19600 18 240175 14341 2.3 16 7 2 5 29% 4645 108783 9270 24%
c i 56.39 34 128 0 51 19613 17 240829 14852 2.3 16 7 2 5 28% 4658 108780 9269 24%
c i 56.39 34 128 0 51 19613 17 240929 14917 2.3 16 7 2 5 28% 4663 108779 9264 24%
c i 56.39 34 128 0 51 19613 17 240931 14915 2.3 16 7 2 5 28% 4664 108779 9263 24%
c i 56.39 34 128 0 51 19613 17 240943 14915 2.3 16 7 2 5 28% 4667 108779 9261 24%
c
c  seconds   switched      rate          size/glue tier1    binary         remaining
c         MB   reductions    conflicts         size  tier2     irredundant
c           level   restarts        redundant    glue   trail         variables
c
c i 56.39 34 128 0 51 19613 17 240949 14916 2.3 16 7 2 5 28% 4669 108779 9256 24%
c } 56.39 34 128 0 51 19613 17 240951 14916 2.3 16 7 2 5 28% 4669 108779 9251 24%
c 0 56.39 34 128 0 51 19613 17 240951 14916 2.3 16 7 2 5 28% 4669 108779 9251 24%
c
c ---- [ result ] ------------------------------------------------------------
c
s UNSATISFIABLE
c
c ---- [ profiling ] ---------------------------------------------------------
c
c          37.55   66.59 %  search
c          37.55   66.59 %  focused
c          18.15   32.18 %  simplify
c          17.09   30.31 %  probe
c           7.69   13.63 %  sweep
c           6.06   10.75 %  vivify
c           1.61    2.85 %  factor
c           1.44    2.56 %  eliminate
c           0.83    1.48 %  substitute
c           0.59    1.04 %  preprocess
c           0.58    1.03 %  congruence
c           0.33    0.58 %  subsume
c           0.30    0.54 %  reduce
c           0.20    0.36 %  transitive
c           0.19    0.34 %  fastel
c           0.12    0.21 %  backbone
c           0.07    0.12 %  lucky
c           0.04    0.07 %  parse
c =============================================
c          56.39  100.00 %  total
c
c ---- [ statistics ] --------------------------------------------------------
c
c chronological:                         5564                2 %  conflicts
c conflicts:                           240951             4272.73 per second
c congruent:                             4474               11 %  variables
c decisions:                          4301882               17.85 per conflict
c eliminated:                           23050               59 %  variables
c factored:                              2898                7 %  variables
c fast_eliminated:                       8799               38 %  eliminated
c fast_strengthened:                       75                1 %  per strengthened
c fast_subsumed:                           25                0 %  per subsumed
c iterations:                              18                0 %  variables
c propagations:                     215427452          3820126    per second
c reductions:                              51             4725    interval
c reordered:                                7            34422    interval
c restarts:                             19613               12    interval
c strengthened:                         11007                0 %  checks
c substituted:                           9746               25 %  variables
c subsumed:                             13627                0 %  checks
c switched:                                 0                0    interval
c vivified:                            125140               15 %  checks
c
c ---- [ glue usage ] --------------------------------------------------------
c
c focused glue 2 used 133026 clauses 24.88% accumulated 70.00% tier1
c focused glue 3 used  62854 clauses 11.75% accumulated 81.75%
c focused glue 4 used  28612 clauses  5.35% accumulated 87.10%
c focused glue 5 used  17538 clauses  3.28% accumulated 90.38% tier2
c
c ---- [ resources ] ---------------------------------------------------------
c
c maximum-resident-set-size:         35868672 bytes         34 MB
c process-time:                            56s              56.39 seconds
c
c ---- [ shutting down ] -----------------------------------------------------
c
c exit 20
